(declare-fun x () Int)
(declare-fun x! () Int)
(declare-fun y () Int)
(declare-fun y! () Int)
(define-fun post-f (( parameter0 Int)( parameter1 Int))
 Bool (and (<= x 1) (>= y (- 3))))
(define-fun inv-f (( parameter0 Int)( parameter1 Int))
 Bool (> parameter1 (ite (> parameter0 1) parameter1 (- 4))))

(assert (and (inv-f x y)(not (post-f x y))))
(check-sat)
(get-model)
